c This is an instance of the exact track of PACE 2020 Challenge, see https://pacechallenge.org/2020/ 
c TYPE: planted 
c ORIGIN: PACE 2020 
c DESCRIPTION: A random tree with some added random edges that go bottom-up the optimal treedepth decomposition 
p tdp 40 79
35 3
2 26
25 1
2 34
14 31
20 24
10 8
14 26
33 38
22 25
4 9
2 12
24 26
21 2
20 4
26 25
8 26
12 26
19 25
19 26
26 7
6 37
37 23
17 36
40 3
35 38
34 12
26 33
26 28
16 4
31 26
5 4
25 15
16 7
22 11
26 9
4 23
26 11
18 37
40 25
26 1
10 13
19 15
33 25
18 26
26 3
5 37
10 4
5 26
31 25
22 26
27 26
17 22
39 4
37 4
34 26
39 13
11 25
39 9
30 25
19 1
16 26
25 36
26 23
14 25
6 4
35 30
2 28
35 26
13 24
29 4
26 32
39 26
18 5
38 25
26 15
18 4
10 26
25 3
